NAME          DCAP_3_4_2_500_SS348
ROWS
 N  OBJ
 L  CON1
 L  CON2
 L  CON3
 L  CON4
 L  CON5
 L  CON6
 L  CON7
 L  CON8
 L  CON9
 L  CON10
 L  CON11
 L  CON12
 E  CON13
 E  CON14
 E  CON15
 E  CON16
 E  CON17
 E  CON18
 E  CON19
 E  CON20
COLUMNS
    x[1,1]    OBJ       6.180167      CON1      1.000000    
    x[1,1]    CON7      -1.000000     CON8      -1.000000   
    x[1,2]    OBJ       5.039546      CON2      1.000000    
    x[1,2]    CON8      -1.000000   
    x[2,1]    OBJ       6.732585      CON3      1.000000    
    x[2,1]    CON9      -1.000000     CON10     -1.000000   
    x[2,2]    OBJ       7.443064      CON4      1.000000    
    x[2,2]    CON10     -1.000000   
    x[3,1]    OBJ       6.563535      CON5      1.000000    
    x[3,1]    CON11     -1.000000     CON12     -1.000000   
    x[3,2]    OBJ       6.054841      CON6      1.000000    
    x[3,2]    CON12     -1.000000   
    MARKER    'MARKER'                'INTORG'
    u[1,1]    OBJ       48.076654     CON1      -1.000000   
    u[1,2]    OBJ       49.466655     CON2      -1.000000   
    u[2,1]    OBJ       49.996186     CON3      -1.000000   
    u[2,2]    OBJ       32.230043     CON4      -1.000000   
    u[3,1]    OBJ       20.066487     CON5      -1.000000   
    u[3,2]    OBJ       27.484319     CON6      -1.000000   
    y[1,1,1]  OBJ       8.879192      CON7      0.653378    
    y[1,1,1]  CON13     1.000000    
    y[1,1,2]  OBJ       7.048896      CON8      1.402287    
    y[1,1,2]  CON14     1.000000    
    y[1,2,1]  OBJ       7.368439      CON7      0.901047    
    y[1,2,1]  CON15     1.000000    
    y[1,2,2]  OBJ       8.846488      CON8      1.433883    
    y[1,2,2]  CON16     1.000000    
    y[1,3,1]  OBJ       8.115899      CON7      1.136907    
    y[1,3,1]  CON17     1.000000    
    y[1,3,2]  OBJ       8.752685      CON8      1.172791    
    y[1,3,2]  CON18     1.000000    
    y[1,4,1]  OBJ       9.337896      CON7      1.160063    
    y[1,4,1]  CON19     1.000000    
    y[1,4,2]  OBJ       7.121324      CON8      0.638636    
    y[1,4,2]  CON20     1.000000    
    y[2,1,1]  OBJ       7.460580      CON9      0.653378    
    y[2,1,1]  CON13     1.000000    
    y[2,1,2]  OBJ       8.710607      CON10     1.402287    
    y[2,1,2]  CON14     1.000000    
    y[2,2,1]  OBJ       7.152977      CON9      0.901047    
    y[2,2,1]  CON15     1.000000    
    y[2,2,2]  OBJ       9.663894      CON10     1.433883    
    y[2,2,2]  CON16     1.000000    
    y[2,3,1]  OBJ       8.025550      CON9      1.136907    
    y[2,3,1]  CON17     1.000000    
    y[2,3,2]  OBJ       5.877793      CON10     1.172791    
    y[2,3,2]  CON18     1.000000    
    y[2,4,1]  OBJ       8.531805      CON9      1.160063    
    y[2,4,1]  CON19     1.000000    
    y[2,4,2]  OBJ       8.902520      CON10     0.638636    
    y[2,4,2]  CON20     1.000000    
    y[3,1,1]  OBJ       5.853977      CON11     0.653378    
    y[3,1,1]  CON13     1.000000    
    y[3,1,2]  OBJ       9.683449      CON12     1.402287    
    y[3,1,2]  CON14     1.000000    
    y[3,2,1]  OBJ       9.781346      CON11     0.901047    
    y[3,2,1]  CON15     1.000000    
    y[3,2,2]  OBJ       5.931200      CON12     1.433883    
    y[3,2,2]  CON16     1.000000    
    y[3,3,1]  OBJ       6.424109      CON11     1.136907    
    y[3,3,1]  CON17     1.000000    
    y[3,3,2]  OBJ       5.490146      CON12     1.172791    
    y[3,3,2]  CON18     1.000000    
    y[3,4,1]  OBJ       9.934603      CON11     1.160063    
    y[3,4,1]  CON19     1.000000    
    y[3,4,2]  OBJ       6.462143      CON12     0.638636    
    y[3,4,2]  CON20     1.000000    
    z[1,1]    OBJ       566.326721    CON13     1.000000    
    z[1,2]    OBJ       505.120115    CON14     1.000000    
    z[2,1]    OBJ       923.098767    CON15     1.000000    
    z[2,2]    OBJ       924.010166    CON16     1.000000    
    z[3,1]    OBJ       548.835185    CON17     1.000000    
    z[3,2]    OBJ       606.754930    CON18     1.000000    
    z[4,1]    OBJ       809.883281    CON19     1.000000    
    z[4,2]    OBJ       541.899049    CON20     1.000000    
    MARKER    'MARKER'                 'INTEND'
RHS
    RHS       CON1      -0.000000     CON2      -0.000000   
    RHS       CON3      -0.000000     CON4      -0.000000   
    RHS       CON5      -0.000000     CON6      -0.000000   
    RHS       CON7      -0.000000     CON8      -0.000000   
    RHS       CON9      -0.000000     CON10     -0.000000   
    RHS       CON11     -0.000000     CON12     -0.000000   
    RHS       CON13     1.000000      CON14     1.000000    
    RHS       CON15     1.000000      CON16     1.000000    
    RHS       CON17     1.000000      CON18     1.000000    
    RHS       CON19     1.000000      CON20     1.000000    
BOUNDS
 BV BOUND     u[1,1]  
 BV BOUND     u[1,2]  
 BV BOUND     u[2,1]  
 BV BOUND     u[2,2]  
 BV BOUND     u[3,1]  
 BV BOUND     u[3,2]  
 BV BOUND     y[1,1,1]
 BV BOUND     y[1,1,2]
 BV BOUND     y[1,2,1]
 BV BOUND     y[1,2,2]
 BV BOUND     y[1,3,1]
 BV BOUND     y[1,3,2]
 BV BOUND     y[1,4,1]
 BV BOUND     y[1,4,2]
 BV BOUND     y[2,1,1]
 BV BOUND     y[2,1,2]
 BV BOUND     y[2,2,1]
 BV BOUND     y[2,2,2]
 BV BOUND     y[2,3,1]
 BV BOUND     y[2,3,2]
 BV BOUND     y[2,4,1]
 BV BOUND     y[2,4,2]
 BV BOUND     y[3,1,1]
 BV BOUND     y[3,1,2]
 BV BOUND     y[3,2,1]
 BV BOUND     y[3,2,2]
 BV BOUND     y[3,3,1]
 BV BOUND     y[3,3,2]
 BV BOUND     y[3,4,1]
 BV BOUND     y[3,4,2]
 BV BOUND     z[1,1]  
 BV BOUND     z[1,2]  
 BV BOUND     z[2,1]  
 BV BOUND     z[2,2]  
 BV BOUND     z[3,1]  
 BV BOUND     z[3,2]  
 BV BOUND     z[4,1]  
 BV BOUND     z[4,2]  
ENDATA
